1 -1 2 0
1 3 -4 0
1 -3 -5 0
1 6 -5 0
1 -4 6 0
1 4 7 0
1 8 9 0
1 5 -10 0
1 -11 -4 0
1 12 -13 0
1 -7 -14 0
1 15 -16 0
1 -15 14 0
1 -17 -18 0
1 16 19 0
1 20 -11 0
1 -20 -3 0
1 13 21 0
1 -22 -23 0
1 24 -19 0
1 24 -25 0
1 24 7 0
1 26 -27 0
1 -28 -29 0
1 -28 -27 0
1 30 6 0
1 -30 -31 0
1 27 32 0
1 27 26 0
1 31 -33 0
1 -34 -27 0
1 35 36 0
1 -35 -37 0
1 35 -7 0
1 38 -35 0
1 36 -21 0
1 36 -39 0
1 -36 40 0
1 -36 -41 0
1 -42 9 0
1 -42 -43 0
1 -44 -45 0
1 -9 -39 0
1 9 -46 0
1 -9 -4 0
1 9 5 0
1 -41 -47 0
1 41 13 0
1 21 -37 0
1 -21 46 0
1 48 -49 0
1 -48 50 0
1 37 -41 0
1 -51 -38 0
1 -51 52 0
1 53 47 0
1 -54 20 0
1 -55 -52 0
1 -55 -56 0
1 -50 24 0
1 50 18 0
1 57 21 0
1 57 -58 0
1 -57 59 0
1 -47 21 0
1 -60 -2 0
1 60 -49 0
1 -10 -61 0
1 10 -62 0
1 -10 63 0
1 -10 -64 0
1 -59 65 0
1 -66 18 0
1 -18 -67 0
1 -18 -68 0
1 67 -69 0
1 -65 70 0
1 -71 -63 0
1 72 -18 0
1 23 22 0
1 73 74 0
1 -75 76 0
1 75 77 0
1 -78 79 0
1 -80 81 0
1 -80 -30 0
1 -82 83 0
1 84 -85 0
1 -86 87 0
1 88 89 0
1 85 -34 0
1 -90 91 0
1 -92 -81 0
1 91 93 0
1 -91 90 0
1 -91 -94 0
1 -95 96 0
1 95 -90 0
1 -81 97 0
1 81 -95 0
1 -81 -98 0
1 -99 -27 0
1 100 31 0
1 -100 -27 0
1 -101 -102 0
1 -101 33 0
1 101 -44 0
1 -102 103 0
1 -102 104 0
1 102 93 0
1 -103 90 0
1 -105 -99 0
1 -106 -107 0
1 108 -90 0
1 -109 -44 0
1 45 -103 0
1 45 -109 0
1 -52 104 0
1 -52 -55 0
1 -52 110 0
1 -52 -51 0
1 -111 110 0
1 -111 51 0
1 112 -113 0
1 -32 112 0
1 -32 -114 0
1 33 -31 0
1 49 -46 0
1 62 110 0
1 115 -116 0
1 -115 -49 0
1 -43 -62 0
1 43 52 0
1 -43 -117 0
1 -118 49 0
1 -110 119 0
1 63 -120 0
1 -121 -115 0
1 122 123 0
1 122 124 0
1 -120 -62 0
1 120 122 0
1 -125 51 0
1 124 -126 0
1 127 -76 0
1 58 128 0
1 58 -129 0
1 58 -130 0
1 -131 132 0
1 133 60 0
1 133 76 0
1 -64 -134 0
1 -135 -123 0
1 135 131 0
1 135 136 0
1 -137 -138 0
1 -137 58 0
1 137 136 0
1 136 -139 0
1 -140 141 0
1 140 142 0
1 -140 143 0
1 -138 -144 0
1 145 146 0
1 147 -140 0
1 -148 -149 0
1 -146 147 0
1 -149 73 0
1 -149 -137 0
1 -150 -151 0
1 150 -152 0
1 153 -154 0
1 155 156 0
1 155 -157 0
1 -158 -153 0
1 -156 159 0
1 -160 161 0
1 -160 162 0
1 -160 -163 0
1 -160 -154 0
1 -163 -164 0
1 163 154 0
1 165 88 0
1 165 166 0
1 89 -86 0
1 -89 156 0
1 -159 -157 0
1 167 -88 0
1 -168 167 0
1 168 169 0
1 -168 155 0
1 -157 -170 0
1 -157 -171 0
1 -172 173 0
1 -172 171 0
1 172 -155 0
1 166 -171 0
1 -174 -175 0
1 97 84 0
1 -97 -86 0
1 176 177 0
1 170 81 0
1 177 -178 0
1 -179 -180 0
1 179 181 0
1 -182 -95 0
1 96 81 0
1 96 -182 0
1 96 -95 0
1 178 -183 0
1 178 184 0
1 -178 185 0
1 -186 94 0
1 184 182 0
1 187 184 0
1 187 188 0
1 -183 -96 0
1 -183 -189 0
1 -190 88 0
1 -107 -106 0
1 -191 184 0
1 192 193 0
1 -192 184 0
1 188 194 0
1 -188 193 0
1 94 -113 0
1 -94 -188 0
1 94 91 0
1 -195 196 0
1 -195 -93 0
1 193 -197 0
1 193 185 0
1 -193 198 0
1 193 188 0
1 199 -118 0
1 200 118 0
1 -200 -110 0
1 201 121 0
1 -194 202 0
1 -203 -204 0
1 -203 205 0
1 203 199 0
1 206 -207 0
1 126 114 0
1 126 125 0
1 117 43 0
1 208 194 0
1 208 209 0
1 -208 -210 0
1 205 211 0
1 -205 -212 0
1 -213 208 0
1 213 200 0
1 114 201 0
1 214 -202 0
1 -123 209 0
1 123 -64 0
1 215 114 0
1 -210 -216 0
1 216 217 0
1 -216 -134 0
1 216 215 0
1 -216 -129 0
1 209 218 0
1 -212 -217 0
1 212 -209 0
1 212 219 0
1 -129 64 0
1 220 131 0
1 221 222 0
1 -221 144 0
1 -221 -223 0
1 224 -128 0
1 -223 225 0
1 223 -142 0
1 226 -222 0
1 -142 -139 0
1 -142 227 0
1 142 144 0
1 228 -229 0
1 230 -128 0
1 -230 -228 0
1 230 -231 0
1 -128 228 0
1 -232 151 0
1 -232 -128 0
1 -233 234 0
1 -235 -225 0
1 -151 -235 0
1 -236 141 0
1 -237 238 0
1 231 239 0
1 141 151 0
1 141 -230 0
1 240 -234 0
1 -241 -151 0
1 -241 235 0
1 -241 -228 0
1 242 231 0
1 243 -244 0
1 -243 -245 0
1 -244 237 0
1 -244 -242 0
1 -246 247 0
1 248 249 0
1 -250 251 0
1 249 248 0
1 252 246 0
1 253 254 0
1 164 -255 0
1 164 89 0
1 -256 -257 0
1 255 258 0
1 259 -260 0
1 259 258 0
1 -162 -160 0
1 -161 -172 0
1 261 -262 0
1 261 -263 0
1 262 264 0
1 -262 -265 0
1 266 173 0
1 -266 -171 0
1 263 267 0
1 -263 162 0
1 171 172 0
1 171 -268 0
1 173 266 0
1 -173 -269 0
1 -180 270 0
1 -180 -263 0
1 180 271 0
1 -180 -268 0
1 -265 -173 0
1 -268 -272 0
1 269 -261 0
1 -271 -171 0
1 -271 -163 0
1 -273 -268 0
1 274 -275 0
1 272 268 0
1 276 181 0
1 270 -277 0
1 -270 197 0
1 270 -278 0
1 277 272 0
1 279 280 0
1 -275 -180 0
1 275 -281 0
1 -282 -283 0
1 198 181 0
1 198 -183 0
1 -197 284 0
1 285 -272 0
1 -283 -286 0
1 -284 -197 0
1 284 282 0
1 -284 287 0
1 196 -288 0
1 -289 285 0
1 -289 -185 0
1 -289 94 0
1 -207 -290 0
1 207 -286 0
1 -286 288 0
1 -291 -292 0
1 -291 286 0
1 -189 -207 0
1 -189 197 0
1 293 286 0
1 -202 -291 0
1 202 -294 0
1 204 -194 0
1 -204 295 0
1 296 -297 0
1 -296 298 0
1 -298 -295 0
1 298 286 0
1 295 -218 0
1 -297 292 0
1 297 286 0
1 290 299 0
1 300 -298 0
1 -218 221 0
1 -301 302 0
1 -301 212 0
1 -301 218 0
1 302 303 0
1 -302 -300 0
1 304 -305 0
1 -306 -299 0
1 307 300 0
1 -308 226 0
1 -217 -308 0
1 217 226 0
1 229 309 0
1 229 228 0
1 305 -310 0
1 -311 -305 0
1 -312 -238 0
1 -310 313 0
1 310 308 0
1 309 -313 0
1 225 235 0
1 -225 312 0
1 -314 -315 0
1 238 -316 0
1 238 -317 0
1 -238 -314 0
1 -318 225 0
1 319 305 0
1 -319 -320 0
1 319 -321 0
1 322 -323 0
1 -322 -320 0
1 322 229 0
1 -322 324 0
1 -325 326 0
1 321 245 0
1 -245 241 0
1 -245 327 0
1 245 -240 0
1 245 -243 0
1 315 234 0
1 315 -321 0
1 -315 328 0
1 329 -238 0
1 330 320 0
1 330 331 0
1 -330 -332 0
1 333 -141 0
1 333 -231 0
1 -334 141 0
1 -334 333 0
1 334 -335 0
1 334 231 0
1 328 -336 0
1 -328 337 0
1 -338 -316 0
1 -338 -339 0
1 340 341 0
1 -340 342 0
1 343 344 0
1 -343 327 0
1 -343 345 0
1 346 -344 0
1 -341 347 0
1 341 -348 0
1 -341 349 0
1 341 346 0
1 -342 -240 0
1 350 -241 0
1 -351 352 0
1 345 -343 0
1 -352 353 0
1 -352 354 0
1 352 -355 0
1 -344 -356 0
1 357 358 0
1 359 360 0
1 -359 -361 0
1 362 359 0
1 363 -247 0
1 -364 -247 0
1 -365 -360 0
1 -366 367 0
1 366 -368 0
1 -366 363 0
1 369 -370 0
1 -371 -372 0
1 -371 -373 0
1 -371 -374 0
1 -371 365 0
1 371 254 0
1 -375 376 0
1 375 377 0
1 -360 370 0
1 254 -375 0
1 254 -249 0
1 374 253 0
1 -374 -259 0
1 -378 368 0
1 260 -255 0
1 -260 368 0
1 260 367 0
1 -367 -379 0
1 367 374 0
1 368 -378 0
1 380 -379 0
1 -380 378 0
1 381 382 0
1 381 367 0
1 383 384 0
1 385 -383 0
1 -386 -387 0
1 388 379 0
1 -389 -266 0
1 390 383 0
1 390 385 0
1 -391 -385 0
1 -391 392 0
1 -393 -394 0
1 -393 -271 0
1 -393 -276 0
1 -395 -280 0
1 -257 -391 0
1 396 -397 0
1 396 -393 0
1 -392 398 0
1 392 -399 0
1 400 257 0
1 280 275 0
1 401 -402 0
1 401 -403 0
1 -401 257 0
1 -401 394 0
1 401 404 0
1 -405 406 0
1 405 -391 0
1 -405 278 0
1 407 280 0
1 -402 -408 0
1 -394 280 0
1 278 409 0
1 278 -407 0
1 410 -411 0
1 -410 -207 0
1 -410 412 0
1 410 413 0
1 414 -415 0
1 416 -265 0
1 -416 417 0
1 416 -418 0
1 -404 -409 0
1 -418 181 0
1 -419 293 0
1 420 -411 0
1 411 -419 0
1 -421 -422 0
1 421 -279 0
1 421 -413 0
1 -413 419 0
1 413 -423 0
1 -413 424 0
1 413 -425 0
1 426 290 0
1 -427 -415 0
1 -427 428 0
1 429 287 0
1 -429 428 0
1 -429 -430 0
1 -431 -420 0
1 431 432 0
1 433 -181 0
1 433 427 0
1 -433 434 0
1 -432 307 0
1 -299 -290 0
1 -435 229 0
1 435 436 0
1 437 -438 0
1 -437 439 0
1 -437 -440 0
1 441 -434 0
1 438 -306 0
1 -438 442 0
1 -443 436 0
1 444 445 0
1 444 -310 0
1 -444 437 0
1 444 -446 0
1 -446 -438 0
1 -446 447 0
1 448 -443 0
1 -448 324 0
1 436 449 0
1 436 450 0
1 -451 436 0
1 451 -435 0
1 -313 -303 0
1 313 331 0
1 452 -453 0
1 -452 454 0
1 -452 312 0
1 455 456 0
1 -455 -325 0
1 324 446 0
1 454 -457 0
1 458 -306 0
1 -458 459 0
1 -458 -453 0
1 453 307 0
1 -453 -460 0
1 -453 447 0
1 -320 -326 0
1 320 -461 0
1 -320 -456 0
1 -326 -303 0
1 326 462 0
1 326 463 0
1 326 325 0
1 464 -303 0
1 -464 465 0
1 -464 -456 0
1 -464 463 0
1 -464 -330 0
1 462 -455 0
1 -462 -466 0
1 -462 463 0
1 463 -455 0
1 -461 -456 0
1 -456 320 0
1 -467 -338 0
1 467 323 0
1 -467 465 0
1 467 468 0
1 -467 469 0
1 465 470 0
1 323 471 0
1 472 -473 0
1 -472 -467 0
1 -339 -338 0
1 -474 327 0
1 475 -468 0
1 476 -469 0
1 -477 339 0
1 478 -356 0
1 -478 476 0
1 478 -479 0
1 -347 -350 0
1 347 -478 0
1 -480 350 0
1 480 481 0
1 -480 477 0
1 356 482 0
1 356 -483 0
1 -484 -485 0
1 484 486 0
1 -484 -480 0
1 484 -487 0
1 -482 347 0
1 355 345 0
1 488 489 0
1 -490 491 0
1 490 -492 0
1 490 -484 0
1 -493 485 0
1 -493 494 0
1 -493 495 0
1 493 490 0
1 496 497 0
1 496 498 0
1 -498 493 0
1 -498 -488 0
1 498 499 0
1 495 493 0
1 492 490 0
1 499 500 0
1 -499 -501 0
1 -501 -502 0
1 491 503 0
1 500 497 0
1 -373 -375 0
1 -373 370 0
1 -382 504 0
1 -505 -379 0
1 -505 506 0
1 507 -382 0
1 504 364 0
1 508 505 0
1 379 386 0
1 387 -388 0
1 509 -372 0
1 -372 379 0
1 -376 -403 0
1 -376 387 0
1 510 379 0
1 -510 -511 0
1 510 -512 0
1 510 513 0
1 384 383 0
1 -397 -514 0
1 515 -516 0
1 -515 514 0
1 -517 518 0
1 -517 387 0
1 517 -515 0
1 514 384 0
1 514 -387 0
1 -519 -511 0
1 -519 403 0
1 -516 515 0
1 398 399 0
1 -399 -520 0
1 -399 257 0
1 -412 -521 0
1 -412 408 0
1 412 -394 0
1 -408 -522 0
1 408 -514 0
1 -522 523 0
1 522 -398 0
1 524 525 0
1 -524 408 0
1 -520 398 0
1 526 527 0
1 526 528 0
1 529 -530 0
1 529 -420 0
1 -531 532 0
1 531 533 0
1 531 -395 0
1 -531 -417 0
1 531 -425 0
1 534 412 0
1 -534 531 0
1 -535 396 0
1 535 -533 0
1 -521 -536 0
1 -532 416 0
1 532 -537 0
1 417 530 0
1 417 -416 0
1 417 404 0
1 -406 538 0
1 -406 539 0
1 -406 -405 0
1 406 -540 0
1 541 532 0
1 -541 -538 0
1 530 -402 0
1 530 -425 0
1 -537 -422 0
1 -424 -433 0
1 -424 287 0
1 -423 -411 0
1 423 -433 0
1 -423 -542 0
1 -543 -544 0
1 -539 545 0
1 539 544 0
1 -546 416 0
1 -546 -547 0
1 -544 -445 0
1 544 -423 0
1 -544 -422 0
1 548 538 0
1 548 -424 0
1 549 540 0
1 -550 287 0
1 550 428 0
1 -551 443 0
1 445 -444 0
1 -445 -552 0
1 553 -445 0
1 553 554 0
1 555 445 0
1 555 -539 0
1 -552 -556 0
1 552 -557 0
1 552 -549 0
1 -552 543 0
1 558 -559 0
1 558 560 0
1 439 553 0
1 -561 -451 0
1 561 -437 0
1 -562 459 0
1 -562 -563 0
1 -562 -551 0
1 564 565 0
1 -564 -563 0
1 564 -562 0
1 564 566 0
1 -567 449 0
1 568 445 0
1 -568 -569 0
1 459 570 0
1 -459 451 0
1 447 -458 0
1 -571 453 0
1 572 -565 0
1 573 574 0
1 575 563 0
1 -575 -566 0
1 575 571 0
1 576 -303 0
1 576 573 0
1 576 453 0
1 -460 458 0
1 -460 -576 0
1 460 577 0
1 -460 -578 0
1 574 579 0
1 574 -456 0
1 -574 -580 0
1 -581 582 0
1 580 -583 0
1 -580 584 0
1 580 -571 0
1 577 576 0
1 582 585 0
1 -473 583 0
1 473 -586 0
1 473 323 0
1 473 472 0
1 -587 -588 0
1 457 470 0
1 457 -589 0
1 -457 481 0
1 457 -590 0
1 591 592 0
1 591 -453 0
1 -470 468 0
1 481 -579 0
1 481 -593 0
1 -594 -595 0
1 594 -579 0
1 -586 596 0
1 593 -597 0
1 -598 -599 0
1 -598 -600 0
1 588 -598 0
1 -601 602 0
1 -601 -468 0
1 601 -590 0
1 -489 589 0
1 597 603 0
1 -597 -494 0
1 -604 605 0
1 -604 -600 0
1 -604 -597 0
1 604 601 0
1 486 -606 0
1 -607 608 0
1 609 -495 0
1 610 468 0
1 610 487 0
1 610 608 0
1 -608 -486 0
1 511 516 0
1 -511 -506 0
1 511 -512 0
1 -513 376 0
1 611 -516 0
1 611 519 0
1 -612 -516 0
1 506 -511 0
1 613 506 0
1 613 513 0
1 -614 513 0
1 518 -615 0
1 518 -514 0
1 528 616 0
1 617 -520 0
1 -617 -506 0
1 618 619 0
1 616 -620 0
1 621 622 0
1 621 -623 0
1 624 -625 0
1 -624 617 0
1 -624 626 0
1 -627 -545 0
1 -628 -629 0
1 628 -625 0
1 -630 631 0
1 630 623 0
1 542 423 0
1 -542 624 0
1 545 -632 0
1 -623 -540 0
1 622 -542 0
1 631 633 0
1 -540 523 0
1 634 -635 0
1 634 548 0
1 -636 -637 0
1 -638 556 0
1 -638 -636 0
1 639 640 0
1 -641 -633 0
1 641 -642 0
1 -632 634 0
1 557 -558 0
1 557 556 0
1 -556 558 0
1 -556 561 0
1 -556 -637 0
1 556 546 0
1 -560 -643 0
1 -560 644 0
1 645 406 0
1 -643 569 0
1 643 554 0
1 637 646 0
1 -646 -647 0
1 -569 -547 0
1 -554 -645 0
1 -648 547 0
1 648 649 0
1 -650 -651 0
1 650 571 0
1 -650 644 0
1 547 652 0
1 -547 -653 0
1 -651 569 0
1 651 654 0
1 651 -650 0
1 655 -656 0
1 657 -575 0
1 -566 -658 0
1 566 -568 0
1 -653 -547 0
1 653 659 0
1 653 -660 0
1 661 -658 0
1 661 566 0
1 -649 648 0
1 -649 660 0
1 559 662 0
1 -559 -657 0
1 -559 663 0
1 -584 -577 0
1 -583 -664 0
1 -583 659 0
1 -583 -580 0
1 665 658 0
1 665 577 0
1 -665 666 0
1 -667 668 0
1 667 669 0
1 664 -670 0
1 -664 -671 0
1 -659 -672 0
1 659 -584 0
1 659 673 0
1 -674 668 0
1 674 -584 0
1 674 -659 0
1 674 -660 0
1 -675 581 0
1 -675 585 0
1 -675 666 0
1 671 -591 0
1 -671 -676 0
1 666 -677 0
1 -678 -595 0
1 -679 595 0
1 -680 681 0
1 682 683 0
1 682 -684 0
1 -676 -578 0
1 -676 596 0
1 -684 682 0
1 685 577 0
1 596 593 0
1 -599 686 0
1 -599 -593 0
1 -687 -688 0
1 -689 -686 0
1 689 677 0
1 -690 687 0
1 -691 630 0
1 -620 629 0
1 -692 -693 0
1 694 -695 0
1 -696 691 0
1 -697 698 0
1 -697 -628 0
1 -699 -693 0
1 699 -697 0
1 -699 -624 0
1 698 642 0
1 695 -699 0
1 -700 693 0
1 -700 701 0
1 700 702 0
1 -700 703 0
1 704 623 0
1 633 -705 0
1 633 706 0
1 -642 -632 0
1 -642 698 0
1 642 -707 0
1 -708 -707 0
1 707 -705 0
1 707 702 0
1 -706 709 0
1 710 633 0
1 710 -711 0
1 -712 707 0
1 640 -713 0
1 714 715 0
1 -714 -705 0
1 -714 -716 0
1 715 -642 0
1 715 -717 0
1 716 718 0
1 716 640 0
1 713 719 0
1 -713 -717 0
1 720 -721 0
1 -720 -714 0
1 720 -631 0
1 -720 -722 0
1 720 -717 0
1 723 724 0
1 -723 -637 0
1 723 725 0
1 -723 566 0
1 718 726 0
1 718 -727 0
1 -728 729 0
1 -730 731 0
1 726 732 0
1 -724 733 0
1 732 -649 0
1 731 -734 0
1 735 736 0
1 -729 -737 0
1 729 738 0
1 -727 -729 0
1 -734 -739 0
1 -734 637 0
1 -740 -735 0
1 -740 734 0
1 -740 646 0
1 741 658 0
1 -741 -727 0
1 -742 -741 0
1 -742 -661 0
1 672 743 0
1 -672 -674 0
1 -672 744 0
1 672 -745 0
1 744 -743 0
1 744 729 0
1 744 -746 0
1 -745 -672 0
1 -745 -747 0
1 654 735 0
1 654 -744 0
1 736 -748 0
1 670 -589 0
1 -747 -749 0
1 -747 750 0
1 683 751 0
1 746 752 0
1 -753 -683 0
1 -753 754 0
1 -753 -673 0
1 -755 -670 0
1 -662 756 0
1 681 685 0
1 752 -605 0
1 -751 -752 0
1 751 -754 0
1 757 749 0
1 757 754 0
1 -701 700 0
1 -758 714 0
1 758 703 0
1 -758 -759 0
1 -759 -760 0
1 -761 -721 0
1 -762 -763 0
1 764 -765 0
1 766 -710 0
1 -766 -703 0
1 763 -713 0
1 -763 -705 0
1 763 -710 0
1 767 -768 0
1 -767 -713 0
1 -767 -761 0
1 760 769 0
1 -760 758 0
1 770 771 0
1 -770 -758 0
1 -703 700 0
1 772 717 0
1 -717 724 0
1 773 -725 0
1 -733 770 0
1 768 -774 0
1 768 -707 0
1 775 -776 0
1 -777 -778 0
1 -777 -774 0
1 776 -779 0
1 776 775 0
1 -739 -672 0
1 739 -780 0
1 -781 -782 0
1 -779 783 0
1 779 -733 0
1 779 -784 0
1 -785 -781 0
1 -719 786 0
1 719 773 0
1 719 -784 0
1 722 781 0
1 -722 720 0
1 -722 784 0
1 738 -787 0
1 -738 780 0
1 738 -785 0
1 750 654 0
1 -783 -780 0
1 -783 -788 0
1 748 -789 0
1 -748 -784 0
1 790 662 0
1 737 790 0
1 791 -727 0
1 789 -792 0
1 -769 -793 0
1 -769 770 0
1 794 -777 0
1 778 -795 0
1 782 -777 0
1 -796 -761 0
1 793 794 0
1 797 769 0
1 765 782 0
1 -765 -797 0
1 765 794 0
1 786 -798 0
1 774 -786 0
1 774 771 0
1 799 800 0
1 799 -795 0
1 801 -802 0
1 771 -782 0
1 798 -786 0
1 -798 778 0
1 -803 771 0
1 803 -804 0
1 803 722 0
1 -805 -806 0
1 -806 795 0
1 -800 -807 0
1 800 -805 0
1 -807 805 0
1 -804 805 0
